	Costo	Nv	Tiempo
1	817,91	5	27,1249
2	1359,85	10	53,6409
3	1545,38	8	116,75
4	1975,7	12	261,54
5	2345,35	17	450,382
6	751,37	7	26,3289
7	1307,88	14	53,4849
8	1448,22	11	112,1889
9	1910,79	18	246,143
10	2224,56	22	445,1879
11	1838,58	7	191,738
12	1713,81	10	111,7049
13	2504,48	13	168,298
14	1721,93	12	109,829
